qe/outputs/qe/cbrdelay_obs_newl/T=5,eliminate=[I_0,I_1,I_2,I_3,I_4,C,B,lhs=L_4],pl=1.smt2
; benchmark generated from python API
(set-info :status unknown)
(declare-fun L_4 () Real)
(declare-fun A_4 () Real)
(declare-fun S_4 () Real)
(declare-fun S_0 () Real)
(declare-fun L_0 () Real)
(declare-fun A_0 () Real)
(declare-fun S_2 () Real)
(declare-fun A_1 () Real)
(declare-fun L_1 () Real)
(declare-fun S_1 () Real)
(declare-fun A_3 () Real)
(declare-fun L_3 () Real)
(declare-fun S_3 () Real)
(declare-fun L_2 () Real)
(declare-fun A_2 () Real)
(assert
 (let (($x34 (>= L_0 0.0)))
 (let ((?x2148 (* 3.0 L_4)))
 (let ((?x4325 (* (- 3.0) S_0)))
 (let ((?x2476 (* 3.0 S_2)))
 (let ((?x1965 (* (- 3.0) A_4)))
 (let ((?x1074 (* 3.0 A_1)))
 (let ((?x1073 (* (- 3.0) L_1)))
 (let (($x6900 (<= (+ ?x1073 ?x1074 ?x1965 ?x2476 ?x4325 ?x2148) 0.0)))
 (let ((?x335 (* (- 1.0) S_1)))
 (let ((?x369 (* (- 1.0) A_4)))
 (let ((?x236 (* (- 1.0) L_1)))
 (let ((?x270 (* (- 1.0) L_3)))
 (let (($x2604 (<= (+ ?x270 A_3 ?x236 A_1 ?x369 ?x335 L_4) 0.0)))
 (let (($x81 (= L_4 L_3)))
 (let ((?x9389 (* 4.0 L_4)))
 (let ((?x9418 (* (- 4.0) A_4)))
 (let ((?x1439 (* 4.0 A_1)))
 (let ((?x1477 (* (- 4.0) L_1)))
 (let ((?x3468 (* 3.0 S_3)))
 (let (($x15420 (<= (+ ?x3468 ?x1477 ?x1439 ?x9418 ?x4325 ?x9389) 0.0)))
 (let (($x18265 (<= (+ ?x236 A_1 ?x369 L_4) (- 15.0))))
 (let ((?x2143 (* 2.0 L_4)))
 (let ((?x1076 (* (- 1.0) S_0)))
 (let ((?x341 (* (- 1.0) S_2)))
 (let ((?x2142 (* (- 2.0) A_4)))
 (let ((?x1043 (* 2.0 A_1)))
 (let ((?x1006 (* (- 2.0) L_1)))
 (let ((?x2155 (* 2.0 A_3)))
 (let ((?x6078 (* (- 2.0) L_3)))
 (let (($x12559 (<= (+ ?x6078 ?x2155 ?x1006 ?x1043 ?x2142 ?x341 ?x1076 ?x2143) 0.0)))
 (let (($x2627 (<= (+ ?x270 A_3 (* (- 1.0) A_0) L_0 ?x236 A_1 ?x369 L_4) 0.0)))
 (let ((?x2011 (* (- 2.0) S_0)))
 (let ((?x348 (* (- 1.0) S_3)))
 (let ((?x6130 (* 3.0 A_3)))
 (let ((?x6129 (* (- 3.0) L_3)))
 (let (($x7902 (<= (+ ?x6129 ?x6130 ?x348 ?x1073 ?x1074 ?x1965 ?x2011 ?x2148) 0.0)))
 (let (($x3782 (<= (+ ?x1006 ?x1043 ?x2142 (* 3.0 S_1) ?x4325 ?x2143) 0.0)))
 (let (($x9401 (<= (+ (* 3.0 S_4) (* (- 3.0) S_3) ?x1006 ?x1043 ?x2142 ?x2143) 0.0)))
 (let (($x9405 (<= (+ (* 3.0 S_4) ?x1477 ?x1439 ?x9418 (* (- 3.0) S_1) ?x9389) 0.0)))
 (let (($x33846 (or $x81 $x2604 (<= (+ ?x1006 ?x1043 ?x2142 ?x2476 (* (- 3.0) S_1) ?x2143) 0.0))))
 (let (($x15882 (<= (+ (* (- 3.0) A_0) ?x3468 (* 3.0 L_0) ?x1073 ?x1074 ?x1965 ?x2148) 0.0)))
 (let ((?x3727 (* (/ 2.0 3.0) L_4)))
 (let ((?x2488 (* (- (/ 2.0 3.0)) A_4)))
 (let ((?x6909 (* (/ 2.0 3.0) A_1)))
 (let ((?x6922 (* (- (/ 2.0 3.0)) L_1)))
 (let ((?x2058 (* 5.0 L_4)))
 (let ((?x1955 (* (- 5.0) A_4)))
 (let ((?x1436 (* 5.0 A_1)))
 (let ((?x1472 (* (- 5.0) L_1)))
 (let ((?x6722 (* 3.0 S_4)))
 (let (($x9397 (<= (+ ?x6722 ?x1472 ?x1436 ?x1955 ?x4325 ?x2058) 0.0)))
 (let ((?x2909 (* (- (/ 3.0 2.0)) S_0)))
 (let ((?x3924 (* (/ 3.0 2.0) S_1)))
 (let ((?x211 (* (- 1.0) L_0)))
 (let (($x14439 (<= (+ ?x211 A_1 ?x369 ?x3924 ?x2909 L_4) 0.0)))
 (let (($x51 (= L_1 L_0)))
 (let (($x659 (not $x51)))
 (let ((?x287 (* (- 1.0) L_4)))
 (let ((?x2336 (* 3.0 S_1)))
 (let ((?x361 (* (- 1.0) A_1)))
 (let ((?x3486 (* (- 3.0) S_3)))
 (let ((?x1903 (* 2.0 S_1)))
 (let ((?x366 (* (- 1.0) A_3)))
 (let (($x20361 (or $x51 (<= (+ L_3 ?x366 ?x348 L_1 ?x361 A_4 ?x1903 ?x287) 0.0))))
 (let (($x17521 (not (<= 0.0 (+ L_3 ?x287)))))
 (let (($x5407 (<= (+ (* (- 3.0) A_0) (* 3.0 L_0) ?x236 A_1 ?x369 ?x2336 L_4) 0.0)))
 (let (($x9432 (<= (+ ?x6722 (* (- 3.0) A_0) (* 3.0 L_0) ?x1477 ?x1439 ?x9418 ?x9389) 0.0)))
 (let ((?x1979 (* (- 2.0) L_4)))
 (let ((?x1957 (* 2.0 A_4)))
 (let ((?x1068 (* (- 2.0) A_1)))
 (let ((?x1067 (* 2.0 L_1)))
 (let (($x13083 (<= (+ L_3 ?x366 (* 2.0 S_4) ?x348 ?x236 A_1 ?x369 L_4) 0.0)))
 (let (($x9532 (<= (+ ?x2142 (* 2.0 A_2) ?x1903 ?x2011 (* (- 2.0) L_2) ?x2143) 0.0)))
 (let (($x1481 (<= (+ S_4 ?x1477 ?x1439 (* (- 4.0) A_2) ?x335 (* 4.0 L_2)) 0.0)))
 (let (($x61 (= L_2 L_1)))
 (let (($x20112 (or $x81 (<= (+ ?x369 A_2 S_2 ?x335 (* (- 1.0) L_2) L_4) 0.0))))
 (let (($x2136 (<= (+ S_4 ?x2142 (* 2.0 A_2) ?x335 (* (- 2.0) L_2) ?x2143) 0.0)))
 (let (($x1408 (<= (+ S_4 ?x348 ?x1006 ?x1043 (* (- 2.0) A_2) (* 2.0 L_2)) 0.0)))
 (let (($x6935 (<= (+ (* (- 3.0) A_0) (* 3.0 L_0) ?x1006 ?x1043 ?x2142 ?x2476 ?x2143) 0.0)))
 (let ((?x1087 (* (- 3.0) L_2)))
 (let ((?x2567 (* 2.0 S_2)))
 (let ((?x1086 (* 3.0 A_2)))
 (let (($x10892 (<= (+ (* (- 1.0) A_0) L_0 ?x369 A_2 S_2 (* (- 1.0) L_2) L_4) 0.0)))
 (let ((?x1480 (* 4.0 L_2)))
 (let ((?x1398 (* (- 4.0) A_2)))
 (let ((?x1100 (* (- 1.0) A_0)))
 (let (($x20238 (or $x61 (<= (+ ?x348 A_4 (* (- 1.0) A_2) S_0 L_2 ?x287) 0.0))))
 (let ((?x4336 (* 2.0 S_0)))
 (let ((?x1881 (* (- 2.0) S_2)))
 (let ((?x363 (* (- 1.0) A_2)))
 (let ((?x2600 (* (- (/ 1.0 2.0)) L_4)))
 (let ((?x8703 (* (/ 1.0 2.0) L_2)))
 (let ((?x8710 (* (- (/ 1.0 2.0)) A_2)))
 (let ((?x2599 (* (/ 1.0 2.0) A_4)))
 (let (($x2154 (<= (+ S_4 ?x1100 L_0 ?x2142 (* 2.0 A_2) (* (- 2.0) L_2) ?x2143) 0.0)))
 (let ((?x2576 (* (/ 1.0 2.0) L_4)))
 (let ((?x8705 (* (- (/ 1.0 2.0)) L_2)))
 (let ((?x8699 (* (/ 1.0 2.0) A_2)))
 (let ((?x2580 (* (- (/ 1.0 2.0)) A_4)))
 (let ((?x1077 (* 3.0 L_2)))
 (let ((?x1075 (* (- 3.0) A_2)))
 (let ((?x2158 (* (- 2.0) L_0)))
 (let (($x20508 (or $x81 $x18265 (<= (+ ?x270 A_3 ?x236 A_1 ?x369 ?x341 L_4) (- 5.0)))))
 (let ((?x7585 (+ (* (/ 1.0 3.0) L_1) (* (- (/ 1.0 3.0)) A_1) (* (/ 1.0 3.0) A_4) ?x341 S_0 (* (- (/ 1.0 3.0)) L_4))))
 (let (($x23068 (or $x81 $x18265 (<= (+ ?x270 A_3 ?x348 ?x236 A_1 ?x369 L_4) (- 10.0)))))
 (let ((?x2012 (* (- 5.0) L_2)))
 (let ((?x2010 (* 5.0 A_2)))
 (let ((?x1835 (* 2.0 S_4)))
 (let (($x15064 (not (<= 0.0 (+ L_1 (* (- 1.0) L_2))))))
 (let ((?x764 (+ L_0 ?x236)))
 (let (($x487 (<= 0.0 ?x764)))
 (let (($x1473 (<= (+ S_4 ?x1472 ?x1436 (* (- 5.0) A_2) ?x1076 (* 5.0 L_2)) 0.0)))
 (let (($x35385 (or $x81 (<= (+ S_4 ?x348 ?x369 A_2 (* (- 1.0) L_2) L_4) 0.0))))
 (let (($x1364 (<= (+ ?x1006 ?x1043 (* (- 2.0) A_2) S_1 ?x1076 (* 2.0 L_2)) 0.0)))
 (let (($x1635 (<= (+ ?x348 ?x1067 ?x1068 (* 2.0 A_2) S_0 (* (- 2.0) L_2)) 0.0)))
 (let (($x34291 (or $x51 (<= (+ L_1 ?x361 A_2 ?x341 S_0 (* (- 1.0) L_2)) 0.0))))
 (let (($x1066 (<= (+ ?x1006 ?x1043 (* (- 2.0) A_2) S_2 ?x335 (* 2.0 L_2)) 0.0)))
 (let (($x1102 (<= (+ ?x1100 L_0 ?x1006 ?x1043 (* (- 2.0) A_2) S_2 (* 2.0 L_2)) 0.0)))
 (let (($x71 (= L_3 L_2)))
 (let (($x34955 (or $x51 (<= (+ ?x348 L_1 ?x361 A_2 S_1 (* (- 1.0) L_2)) 0.0))))
 (let (($x108 (>= S_1 S_0)))
 (let (($x111 (>= S_2 S_1)))
 (let (($x114 (>= S_3 S_2)))
 (let (($x120 (>= A_2 A_1)))
 (let (($x121 (>= A_3 A_2)))
 (and (<= (+ A_3 ?x270) S_4) (<= (+ A_0 ?x211) S_3) $x121 $x120 $x114 $x111 $x108 (not (<= (+ A_1 ?x236) S_3)) (or (not $x487) $x51) (or $x61 (<= (+ ?x236 A_1 ?x363 L_2) (- 5.0))) (or $x51 $x61 $x81 (= (+ ?x1067 ?x1068 ?x369 ?x1086 ?x1087 L_4) 0.0)) (or $x61 (<= 0.0 (+ L_3 ?x1067 ?x1068 ?x369 ?x1086 ?x1087)) (not $x81)) $x34955 (or $x15064 $x61) (or $x81 $x17521) $x71 (or $x61 $x1102) (or $x61 $x1066) (or $x61 (<= (+ ?x1100 L_0 ?x236 A_1 ?x363 S_1 L_2) 0.0)) (<= (+ ?x348 S_1) (- 5.0)) (<= (+ ?x1100 ?x348 L_0 ?x1903) 0.0) (<= (+ (* (- (/ 1.0 2.0)) S_3) (* (/ 1.0 2.0) S_0)) (- 5.0)) (<= (+ S_4 ?x3486 ?x1903) 0.0) (<= (+ (* (- 2.0) S_3) ?x2336 ?x1076) 0.0) $x34291 (or $x51 $x1635) (or $x61 $x1364) $x35385 (or $x61 (<= (+ S_4 ?x1073 ?x1074 ?x1075 ?x341 ?x1077) 0.0)) (or $x61 $x1473) (or $x61 (<= (+ ?x1073 ?x1074 ?x1075 S_2 ?x1076 ?x1077) 0.0)) (or $x51 (<= (+ L_3 ?x366 L_1 ?x361 A_4 S_0 ?x287) 0.0)) (or $x81 $x487 (<= (+ ?x236 ?x1068 ?x369 ?x1086 L_4) 0.0) $x15064) (or $x81 (<= (+ ?x1835 ?x1955 ?x2010 ?x2011 ?x2012 ?x2058) 0.0)) (or $x81 $x2627 $x18265) $x23068 (<= (+ ?x341 S_0) (- 5.0)) (or $x51 (<= ?x7585 0.0)) $x20508 (or $x61 $x659 (<= (+ ?x2158 ?x1043 A_4 ?x1075 ?x1077 ?x287) 0.0)) (<= (+ (* (/ 1.0 4.0) S_4) ?x341 (* (/ 3.0 4.0) S_0)) 0.0) (<= (+ L_3 ?x366 S_4 ?x341 S_0) 0.0) (or $x81 (<= (+ ?x1835 ?x1965 ?x1086 ?x1881 ?x1087 ?x2148) 0.0)) (or $x81 (<= (+ ?x1100 L_0 ?x2580 ?x8699 S_1 ?x8705 ?x2576) 0.0)) (or $x81 $x2154) (or $x61 (<= (+ ?x348 ?x2599 ?x8710 S_1 ?x8703 ?x2600) 0.0)) (or $x61 (<= (+ A_4 ?x363 ?x1881 ?x4336 L_2 ?x287) 0.0)) $x20238 (<= (+ S_3 (* (- 3.0) S_2) ?x4336) 0.0) (or $x61 (<= (+ S_4 ?x1100 L_0 ?x1477 ?x1439 ?x1398 ?x1480) 0.0)) (or $x81 $x10892) (or $x81 (<= (+ ?x1965 ?x1086 ?x2567 ?x2011 ?x1087 ?x2148) 0.0)) (or $x81 $x2627 $x6935) (or $x81 $x2627 $x6900) (or $x61 $x1408) (or $x81 (<= (+ S_4 ?x236 A_1 ?x369 ?x341 L_4) 0.0)) (or $x81 $x2136) (or $x81 (<= (+ ?x369 A_2 (* (- 1.0) L_2) L_4) (- 10.0))) $x20112 (or $x61 $x1481) (or $x81 $x9532) (or $x81 $x13083) (or $x51 (<= (+ ?x3486 ?x1067 ?x1068 ?x1957 (* 3.0 S_0) ?x1979) 0.0)) (or $x81 $x2627 $x9432) (or $x81 $x2627 $x5407) (or $x81 $x2604 $x9397) (<= (+ L_3 ?x366 S_4 (* (- (/ 1.0 2.0)) S_3) (* (/ 1.0 2.0) S_0)) 0.0) (or $x51 (<= (+ ?x366 ?x348 L_1 ?x361 A_4 ?x1903) 0.0) $x17521) $x20361 (or $x51 (<= (+ ?x3486 L_1 ?x361 A_4 ?x2336 ?x287) 0.0)) (or $x81 $x2627 $x9397) (or $x81 $x659 $x2627 $x14439) (or $x81 $x7902 $x9397) (or $x81 $x659 $x7902 $x14439) (or $x81 $x2627 $x3782) (or $x81 $x6900 $x7902) (<= (+ L_3 ?x366 S_4 ?x348 S_1) 0.0) (<= (+ (* (/ 1.0 2.0) S_4) ?x348 (* (/ 1.0 2.0) S_0)) 0.0) (or $x81 $x9397 $x12559) (or $x81 $x3782 $x12559) (or $x81 $x12559 $x15420) (or $x81 (<= (+ S_3 ?x6922 ?x6909 ?x2488 ?x341 ?x3727) 0.0)) (or $x81 $x7902 $x18265) (or $x81 $x15882) (or $x81 $x2604 $x18265) (or $x81 (<= (+ ?x3468 ?x1073 ?x1074 ?x1965 (* (- 3.0) S_1) ?x2148) 0.0)) $x33846 (or $x81 $x2604 $x9405) (or $x81 $x9401) (or $x81 $x3782 $x7902) (or $x81 $x7902 $x15420) (or $x81 $x2627 $x15420) (or $x81 $x12559 $x18265) (or $x81 $x2604 $x15420) (or $x81 $x2604 $x6900) $x34 (<= (+ ?x1100 L_0 S_0) 0.0) (<= (+ S_4 ?x369 L_4) 0.0))))))))))))))))))))))))))))))))))))))))))))))))))))))))))))))))))))))))))))))))))))))))))))))))))))))))))))))))))))))))))))))))
(check-sat)
